(set-logic QF_AUFBV)
(declare-fun __gtCONSTRAINT0 () Bool)
(declare-fun __gtCONSTRAINT1 () Bool)
(declare-fun __gtCONSTRAINT2 () Bool)
(declare-fun __gtCONSTRAINT3 () Bool)
(declare-fun __gtCONSTRAINT4 () Bool)
(declare-fun __gtCONSTRAINT5 () Bool)
(declare-fun __gtCONSTRAINT6 () Bool)
(declare-fun __gtCONSTRAINT7 () Bool)
(declare-fun __gtCONSTRAINT8 () Bool)
(declare-fun __gtCONSTRAINT9 () Bool)
(declare-fun __gtCONSTRAINT10 () Bool)
(declare-fun __gtCONSTRAINT11 () Bool)
(declare-fun __gtCONSTRAINT12 () Bool)
(declare-fun __gtCONSTRAINT13 () Bool)
(declare-fun __gtCONSTRAINT14 () Bool)
(declare-fun __gtCONSTRAINT15 () Bool)
(declare-fun __gtCONSTRAINT16 () Bool)
(declare-fun __gtCONSTRAINT17 () Bool)
(declare-fun __gtCONSTRAINT18 () Bool)
(declare-fun __gtCONSTRAINT19 () Bool)
(declare-fun __gtCONSTRAINT20 () Bool)
(declare-fun __gtCONSTRAINT21 () Bool)
(declare-fun __gtCONSTRAINT22 () Bool)
(declare-fun __gtCONSTRAINT23 () Bool)
(declare-fun __gtCONSTRAINT24 () Bool)
(declare-fun __gtCONSTRAINT25 () Bool)
(declare-fun __gtCONSTRAINT26 () Bool)
(declare-fun __gtCONSTRAINT27 () Bool)
(declare-fun __gtCONSTRAINT28 () Bool)
(declare-fun __gtCONSTRAINT29 () Bool)
(declare-fun __gtCONSTRAINT30 () Bool)
(declare-fun __gtCONSTRAINT31 () Bool)
(declare-fun __gtCONSTRAINT32 () Bool)
(declare-fun __gtCONSTRAINT33 () Bool)
(declare-fun __gtCONSTRAINT34 () Bool)
(declare-fun __gtCONSTRAINT35 () Bool)
(declare-fun __gtCONSTRAINT36 () Bool)
(declare-fun __gtCONSTRAINT37 () Bool)
(declare-fun __gtCONSTRAINT38 () Bool)
(declare-fun __gtCONSTRAINT39 () Bool)
(declare-fun __gtCONSTRAINT40 () Bool)
(declare-fun __gtCONSTRAINT41 () Bool)
(declare-fun __gtCONSTRAINT42 () Bool)
(declare-fun __gtCONSTRAINT43 () Bool)
(declare-fun __gtCONSTRAINT44 () Bool)
(declare-fun __gtCONSTRAINT45 () Bool)
(declare-fun __gtCONSTRAINT46 () Bool)
(declare-fun __gtCONSTRAINT47 () Bool)
(declare-fun __gtCONSTRAINT48 () Bool)
(declare-fun __gtCONSTRAINT49 () Bool)
(declare-fun __gtCONSTRAINT50 () Bool)
(declare-fun __gtCONSTRAINT51 () Bool)
(declare-fun __gtCONSTRAINT52 () Bool)
(declare-fun __gtCONSTRAINT53 () Bool)
(declare-fun __gtCONSTRAINT54 () Bool)
(declare-fun __gtCONSTRAINT55 () Bool)
(declare-fun __gtCONSTRAINT56 () Bool)
(declare-fun __gtCONSTRAINT57 () Bool)
(declare-fun __gtCONSTRAINT58 () Bool)
(declare-fun __gtCONSTRAINT59 () Bool)
(declare-fun _sfEvent_ () (_ BitVec 32))
(declare-fun __gtAGG__rtDWork () (_ BitVec 32))
(declare-fun __gtINDEX0 () (_ BitVec 32))
(declare-fun __gtINDEX1 () (_ BitVec 32))
(declare-fun __gtINDEX2 () (_ BitVec 32))
(declare-fun __gtINDEX3 () (_ BitVec 32))
(declare-fun __gtINDEX4 () (_ BitVec 32))
(declare-fun __gtINDEX5 () (_ BitVec 32))
(declare-fun __gtINDEX6 () (_ BitVec 32))
(declare-fun __gtINDEX7 () (_ BitVec 32))
(declare-fun __gtINDEX8 () (_ BitVec 32))
(declare-fun __gtINDEX9 () (_ BitVec 32))
(declare-fun __gtINDEX10 () (_ BitVec 32))
(declare-fun __gtINDEX11 () (_ BitVec 32))
(declare-fun __gtINDEX12 () (_ BitVec 32))
(declare-fun __gtINDEX13 () (_ BitVec 32))
(declare-fun __gtINDEX14 () (_ BitVec 32))
(declare-fun __gtINDEX15 () (_ BitVec 32))
(declare-fun __gtINDEX16 () (_ BitVec 32))
(declare-fun __gtINDEX17 () (_ BitVec 32))
(declare-fun __gtINDEX18 () (_ BitVec 32))
(declare-fun __gtINDEX19 () (_ BitVec 32))
(declare-fun __gtINDEX20 () (_ BitVec 32))
(declare-fun __gtINDEX21 () (_ BitVec 32))
(declare-fun __gtINDEX22 () (_ BitVec 32))
(declare-fun __gtINDEX23 () (_ BitVec 32))
(declare-fun __gtINDEX24 () (_ BitVec 32))
(declare-fun __gtINDEX25 () (_ BitVec 32))
(declare-fun __gtINDEX26 () (_ BitVec 32))
(declare-fun __gtINDEX27 () (_ BitVec 32))
(declare-fun __gtINDEX28 () (_ BitVec 32))
(declare-fun __gtINDEX29 () (_ BitVec 32))
(declare-fun __gtINDEX30 () (_ BitVec 32))
(declare-fun __gtINDEX31 () (_ BitVec 32))
(declare-fun __gtINDEX32 () (_ BitVec 32))
(declare-fun __gtINDEX33 () (_ BitVec 32))
(declare-fun __gtPTR0 () (Array (_ BitVec 32) (_ BitVec 32)))
(declare-fun __gtFIELD__bitsForTID0__gtAGG____anonstruct_D_Work_4 () (Array (_ BitVec 32) (_ BitVec 32)))
(declare-fun __gtFIELD__is_PAVI__gtAGG____anonstruct_bitsForTID0_5 () (Array (_ BitVec 32) (_ BitVec 3)))
(declare-fun __gtFIELD__sent__gtAGG____anonstruct_D_Work_4 () (Array (_ BitVec 32) (_ BitVec 32)))
(declare-fun __gtFIELD__is_PLRI__gtAGG____anonstruct_bitsForTID0_5 () (Array (_ BitVec 32) (_ BitVec 2)))
(declare-fun __gtFIELD__n_t_n__gtAGG____anonstruct_D_Work_4 () (Array (_ BitVec 32) (_ BitVec 32)))
(declare-fun __gtFIELD__n_t_n__gtAGG____anonstruct_D_Work_4<1> () (Array (_ BitVec 32) (_ BitVec 32)))
(declare-fun __gtFIELD__is_PLRI__gtAGG____anonstruct_bitsForTID0_5<1> () (Array (_ BitVec 32) (_ BitVec 2)))
(declare-fun __gtFIELD__temporalCounter_i2__gtAGG____anonstruct_D_Work_4 () (Array (_ BitVec 32) (_ BitVec 32)))
(declare-fun __gtFIELD__temporalCounter_i2__gtAGG____anonstruct_D_Work_4<1> () (Array (_ BitVec 32) (_ BitVec 32)))
(declare-fun __gtFIELD__is_PPVARP__gtAGG____anonstruct_bitsForTID0_5 () (Array (_ BitVec 32) (_ BitVec 2)))
(declare-fun __gtFIELD__is_PVRP__gtAGG____anonstruct_bitsForTID0_5 () (Array (_ BitVec 32) (_ BitVec 2)))
(declare-fun __gtFIELD__n_t_a1__gtAGG____anonstruct_D_Work_4 () (Array (_ BitVec 32) (_ BitVec 32)))
(declare-fun __gtFIELD__n_t_a1__gtAGG____anonstruct_D_Work_4<1> () (Array (_ BitVec 32) (_ BitVec 32)))
(declare-fun __gtFIELD__is_PVRP__gtAGG____anonstruct_bitsForTID0_5<1> () (Array (_ BitVec 32) (_ BitVec 2)))
(declare-fun __gtFIELD__temporalCounter_i4__gtAGG____anonstruct_D_Work_4 () (Array (_ BitVec 32) (_ BitVec 32)))
(declare-fun __gtFIELD__temporalCounter_i4__gtAGG____anonstruct_D_Work_4<1> () (Array (_ BitVec 32) (_ BitVec 32)))
(declare-fun __gtFIELD__is_PURI__gtAGG____anonstruct_bitsForTID0_5 () (Array (_ BitVec 32) (_ BitVec 2)))
(declare-fun __gtFIELD__is_PURI__gtAGG____anonstruct_bitsForTID0_5<1> () (Array (_ BitVec 32) (_ BitVec 2)))
(declare-fun __gtFIELD__is_Eng__gtAGG____anonstruct_bitsForTID0_5 () (Array (_ BitVec 32) (_ BitVec 1)))
(assert (= __gtCONSTRAINT0 (not (= _sfEvent_ (_ bv8 32)))))
(assert (= __gtCONSTRAINT1 (not (= ((_ zero_extend 29) (select __gtFIELD__is_PAVI__gtAGG____anonstruct_bitsForTID0_5 __gtINDEX1)) (_ bv1 32)))))
(assert (= __gtCONSTRAINT2 (= ((_ zero_extend 29) (select __gtFIELD__is_PAVI__gtAGG____anonstruct_bitsForTID0_5 __gtINDEX3)) (_ bv2 32))))
(assert (= __gtCONSTRAINT3 (not (= (select __gtFIELD__sent__gtAGG____anonstruct_D_Work_4 __gtINDEX4) (_ bv0 32)))))
(assert (= __gtCONSTRAINT4 (not (= (select __gtFIELD__sent__gtAGG____anonstruct_D_Work_4 __gtINDEX5) (_ bv0 32)))))
(assert (= __gtCONSTRAINT5 (not (= _sfEvent_ (_ bv5 32)))))
(assert (= __gtCONSTRAINT6 (= ((_ zero_extend 30) (select __gtFIELD__is_PLRI__gtAGG____anonstruct_bitsForTID0_5 __gtINDEX7)) (_ bv1 32))))
(assert (= __gtCONSTRAINT7 (not (= (select __gtFIELD__sent__gtAGG____anonstruct_D_Work_4 __gtINDEX8) (_ bv0 32)))))
(assert (= __gtCONSTRAINT8 (= _sfEvent_ (_ bv4 32))))
(assert (= __gtCONSTRAINT9 (= __gtFIELD__n_t_n__gtAGG____anonstruct_D_Work_4<1> (store __gtFIELD__n_t_n__gtAGG____anonstruct_D_Work_4 __gtINDEX9 (_ bv0 32)))))
(assert (= __gtCONSTRAINT10 (= __gtFIELD__is_PLRI__gtAGG____anonstruct_bitsForTID0_5<1> (store __gtFIELD__is_PLRI__gtAGG____anonstruct_bitsForTID0_5 __gtINDEX11 ((_ extract 1 0) (_ bv1 32))))))
(assert (= __gtCONSTRAINT11 (= __gtFIELD__temporalCounter_i2__gtAGG____anonstruct_D_Work_4<1> (store __gtFIELD__temporalCounter_i2__gtAGG____anonstruct_D_Work_4 __gtINDEX12 (_ bv0 32)))))
(assert (= __gtCONSTRAINT12 (not (= ((_ zero_extend 30) (select __gtFIELD__is_PPVARP__gtAGG____anonstruct_bitsForTID0_5 __gtINDEX14)) (_ bv1 32)))))
(assert (= __gtCONSTRAINT13 (not (= ((_ zero_extend 30) (select __gtFIELD__is_PPVARP__gtAGG____anonstruct_bitsForTID0_5 __gtINDEX16)) (_ bv2 32)))))
(assert (= __gtCONSTRAINT14 (= ((_ zero_extend 30) (select __gtFIELD__is_PPVARP__gtAGG____anonstruct_bitsForTID0_5 __gtINDEX18)) (_ bv3 32))))
(assert (= __gtCONSTRAINT15 (not (= (select __gtFIELD__sent__gtAGG____anonstruct_D_Work_4 __gtINDEX19) (_ bv0 32)))))
(assert (= __gtCONSTRAINT16 (= ((_ zero_extend 30) (select __gtFIELD__is_PVRP__gtAGG____anonstruct_bitsForTID0_5 __gtINDEX21)) (_ bv1 32))))
(assert (= __gtCONSTRAINT17 (not (= _sfEvent_ (_ bv0 32)))))
(assert (= __gtCONSTRAINT18 (= _sfEvent_ (_ bv4 32))))
(assert (= __gtCONSTRAINT19 (= __gtFIELD__n_t_a1__gtAGG____anonstruct_D_Work_4<1> (store __gtFIELD__n_t_a1__gtAGG____anonstruct_D_Work_4 __gtINDEX22 (_ bv0 32)))))
(assert (= __gtCONSTRAINT20 (= __gtFIELD__is_PVRP__gtAGG____anonstruct_bitsForTID0_5<1> (store __gtFIELD__is_PVRP__gtAGG____anonstruct_bitsForTID0_5 __gtINDEX24 ((_ extract 1 0) (_ bv2 32))))))
(assert (= __gtCONSTRAINT21 (= __gtFIELD__temporalCounter_i4__gtAGG____anonstruct_D_Work_4<1> (store __gtFIELD__temporalCounter_i4__gtAGG____anonstruct_D_Work_4 __gtINDEX25 (_ bv0 32)))))
(assert (= __gtCONSTRAINT22 (not (= ((_ zero_extend 30) (select __gtFIELD__is_PURI__gtAGG____anonstruct_bitsForTID0_5 __gtINDEX27)) (_ bv1 32)))))
(assert (= __gtCONSTRAINT23 (not (= ((_ zero_extend 30) (select __gtFIELD__is_PURI__gtAGG____anonstruct_bitsForTID0_5 __gtINDEX29)) (_ bv2 32)))))
(assert (= __gtCONSTRAINT24 (= __gtFIELD__is_PURI__gtAGG____anonstruct_bitsForTID0_5<1> (store __gtFIELD__is_PURI__gtAGG____anonstruct_bitsForTID0_5 __gtINDEX31 ((_ extract 1 0) (_ bv0 32))))))
(assert (= __gtCONSTRAINT25 (not (= ((_ zero_extend 31) (select __gtFIELD__is_Eng__gtAGG____anonstruct_bitsForTID0_5 __gtINDEX33)) (_ bv1 32)))))
(assert (= __gtCONSTRAINT26 (= __gtINDEX0 __gtAGG__rtDWork)))
(assert (= __gtCONSTRAINT27 (= __gtINDEX1 (select __gtFIELD__bitsForTID0__gtAGG____anonstruct_D_Work_4 __gtINDEX0))))
(assert (= __gtCONSTRAINT28 (= __gtINDEX2 __gtAGG__rtDWork)))
(assert (= __gtCONSTRAINT29 (= __gtINDEX3 (select __gtFIELD__bitsForTID0__gtAGG____anonstruct_D_Work_4 __gtINDEX2))))
(assert (= __gtCONSTRAINT30 (= __gtINDEX4 __gtAGG__rtDWork)))
(assert (= __gtCONSTRAINT31 (= __gtINDEX5 __gtAGG__rtDWork)))
(assert (= __gtCONSTRAINT32 (= __gtINDEX6 __gtAGG__rtDWork)))
(assert (= __gtCONSTRAINT33 (= __gtINDEX7 (select __gtFIELD__bitsForTID0__gtAGG____anonstruct_D_Work_4 __gtINDEX6))))
(assert (= __gtCONSTRAINT34 (= __gtINDEX8 __gtAGG__rtDWork)))
(assert (= __gtCONSTRAINT35 (= __gtINDEX9 __gtAGG__rtDWork)))
(assert (= __gtCONSTRAINT36 (= __gtINDEX10 __gtAGG__rtDWork)))
(assert (= __gtCONSTRAINT37 (= __gtINDEX11 (select __gtFIELD__bitsForTID0__gtAGG____anonstruct_D_Work_4 __gtINDEX10))))
(assert (= __gtCONSTRAINT38 (= __gtINDEX12 __gtAGG__rtDWork)))
(assert (= __gtCONSTRAINT39 (= __gtINDEX13 __gtAGG__rtDWork)))
(assert (= __gtCONSTRAINT40 (= __gtINDEX14 (select __gtFIELD__bitsForTID0__gtAGG____anonstruct_D_Work_4 __gtINDEX13))))
(assert (= __gtCONSTRAINT41 (= __gtINDEX15 __gtAGG__rtDWork)))
(assert (= __gtCONSTRAINT42 (= __gtINDEX16 (select __gtFIELD__bitsForTID0__gtAGG____anonstruct_D_Work_4 __gtINDEX15))))
(assert (= __gtCONSTRAINT43 (= __gtINDEX17 __gtAGG__rtDWork)))
(assert (= __gtCONSTRAINT44 (= __gtINDEX18 (select __gtFIELD__bitsForTID0__gtAGG____anonstruct_D_Work_4 __gtINDEX17))))
(assert (= __gtCONSTRAINT45 (= __gtINDEX19 __gtAGG__rtDWork)))
(assert (= __gtCONSTRAINT46 (= __gtINDEX20 __gtAGG__rtDWork)))
(assert (= __gtCONSTRAINT47 (= __gtINDEX21 (select __gtFIELD__bitsForTID0__gtAGG____anonstruct_D_Work_4 __gtINDEX20))))
(assert (= __gtCONSTRAINT48 (= __gtINDEX22 __gtAGG__rtDWork)))
(assert (= __gtCONSTRAINT49 (= __gtINDEX23 __gtAGG__rtDWork)))
(assert (= __gtCONSTRAINT50 (= __gtINDEX24 (select __gtFIELD__bitsForTID0__gtAGG____anonstruct_D_Work_4 __gtINDEX23))))
(assert (= __gtCONSTRAINT51 (= __gtINDEX25 __gtAGG__rtDWork)))
(assert (= __gtCONSTRAINT52 (= __gtINDEX26 __gtAGG__rtDWork)))
(assert (= __gtCONSTRAINT53 (= __gtINDEX27 (select __gtFIELD__bitsForTID0__gtAGG____anonstruct_D_Work_4 __gtINDEX26))))
(assert (= __gtCONSTRAINT54 (= __gtINDEX28 __gtAGG__rtDWork)))
(assert (= __gtCONSTRAINT55 (= __gtINDEX29 (select __gtFIELD__bitsForTID0__gtAGG____anonstruct_D_Work_4 __gtINDEX28))))
(assert (= __gtCONSTRAINT56 (= __gtINDEX30 __gtAGG__rtDWork)))
(assert (= __gtCONSTRAINT57 (= __gtINDEX31 (select __gtFIELD__bitsForTID0__gtAGG____anonstruct_D_Work_4 __gtINDEX30))))
(assert (= __gtCONSTRAINT58 (= __gtINDEX32 __gtAGG__rtDWork)))
(assert (= __gtCONSTRAINT59 (= __gtINDEX33 (select __gtFIELD__bitsForTID0__gtAGG____anonstruct_D_Work_4 __gtINDEX32))))
(assert (and __gtCONSTRAINT0 __gtCONSTRAINT1 __gtCONSTRAINT2 __gtCONSTRAINT3 __gtCONSTRAINT4 __gtCONSTRAINT5 __gtCONSTRAINT6 __gtCONSTRAINT7 __gtCONSTRAINT8 __gtCONSTRAINT9 __gtCONSTRAINT10 __gtCONSTRAINT11 __gtCONSTRAINT12 __gtCONSTRAINT13 __gtCONSTRAINT14 __gtCONSTRAINT15 __gtCONSTRAINT16 __gtCONSTRAINT17 __gtCONSTRAINT18 __gtCONSTRAINT19 __gtCONSTRAINT20 __gtCONSTRAINT21 __gtCONSTRAINT22 __gtCONSTRAINT23 __gtCONSTRAINT24 __gtCONSTRAINT25 __gtCONSTRAINT26 __gtCONSTRAINT27 __gtCONSTRAINT28 __gtCONSTRAINT29 __gtCONSTRAINT30 __gtCONSTRAINT31 __gtCONSTRAINT32 __gtCONSTRAINT33 __gtCONSTRAINT34 __gtCONSTRAINT35 __gtCONSTRAINT36 __gtCONSTRAINT37 __gtCONSTRAINT38 __gtCONSTRAINT39 __gtCONSTRAINT40 __gtCONSTRAINT41 __gtCONSTRAINT42 __gtCONSTRAINT43 __gtCONSTRAINT44 __gtCONSTRAINT45 __gtCONSTRAINT46 __gtCONSTRAINT47 __gtCONSTRAINT48 __gtCONSTRAINT49 __gtCONSTRAINT50 __gtCONSTRAINT51 __gtCONSTRAINT52 __gtCONSTRAINT53 __gtCONSTRAINT54 __gtCONSTRAINT55 __gtCONSTRAINT56 __gtCONSTRAINT57 __gtCONSTRAINT58 __gtCONSTRAINT59))
(check-sat)
(exit)
